(set-logic QF_NRA)
; benchmark generated from python API
(set-info :status unknown)
(declare-fun v1y () Real)
(declare-fun oy () Real)
(declare-fun v1x () Real)
(declare-fun R2 () Real)
(declare-fun y1y () Real)
(declare-fun xy () Real)
(declare-fun y1x () Real)
(declare-fun xx () Real)
(declare-fun rho2 () Real)
(declare-fun y2y () Real)
(declare-fun y2x () Real)
(declare-fun a1y () Real)
(declare-fun a1x () Real)
(declare-fun b1y () Real)
(declare-fun b1x () Real)
(assert
 (let ((?x140 (* (- 1.0) v1x)))
 (let ((?x205 (* (- 1.0) R2)))
 (let ((?x123 (+ (+ (+ (+ (/ 1.0 4.0) (* oy oy)) (* v1x v1x)) (* v1y v1y)) ?x205)))
 (= (+ (+ ?x123 ?x140) (* (* (- 2.0) oy) v1y)) 0.0)))))
(assert
 (= (+ (+ (/ 1.0 4.0) (* oy oy)) (* (- 1.0) R2)) 0.0))
(assert
 (let ((?x127 (* (- 1.0) rho2)))
 (let ((?x449 (* y1y y1y)))
 (let ((?x287 (+ (+ (+ (+ (* xx xx) (* xy xy)) (* y1x y1x)) ?x449) ?x127)))
 (= (+ (+ ?x287 (* (* (- 2.0) xx) y1x)) (* (* (- 2.0) xy) y1y)) 0.0)))))
(assert
 (let ((?x127 (* (- 1.0) rho2)))
 (let ((?x340 (* y2y y2y)))
 (let ((?x471 (+ (+ (+ (+ (* xx xx) (* xy xy)) (* y2x y2x)) ?x340) ?x127)))
 (= (+ (+ ?x471 (* (* (- 2.0) xx) y2x)) (* (* (- 2.0) xy) y2y)) 0.0)))))
(assert
 (let ((?x127 (* (- 1.0) rho2)))
 (let ((?x31 (* xy xy)))
 (let ((?x463 (+ (+ (+ (+ (* a1x a1x) (* a1y a1y)) (* xx xx)) ?x31) ?x127)))
 (= (+ (+ ?x463 (* (* (- 2.0) a1x) xx)) (* (* (- 2.0) a1y) xy)) 0.0)))))
(assert
 (let ((?x127 (* (- 1.0) rho2)))
 (let ((?x31 (* xy xy)))
 (let ((?x178 (+ (+ (+ (+ (* b1x b1x) (* b1y b1y)) (* xx xx)) ?x31) ?x127)))
 (= (+ (+ ?x178 (* (* (- 2.0) b1x) xx)) (* (* (- 2.0) b1y) xy)) 0.0)))))
(assert
 (let ((?x355 (+ (+ (+ (+ (- (/ 1.0 4.0)) R2) xx) (* (- 1.0) (* oy oy))) (* (- 1.0) (* xx xx)))))
 (>= (+ (+ ?x355 (* (- 1.0) (* xy xy))) (* (* 2.0 oy) xy)) 0.0)))
(assert
 (let ((?x307 (+ (+ (+ (+ (- (/ 1.0 4.0)) R2) y1x) (* (- 1.0) (* oy oy))) (* (- 1.0) (* y1x y1x)))))
 (>= (+ (+ ?x307 (* (- 1.0) (* y1y y1y))) (* (* 2.0 oy) y1y)) 0.0)))
(assert
 (let ((?x475 (+ (+ (+ (+ (- (/ 1.0 4.0)) R2) y2x) (* (- 1.0) (* oy oy))) (* (- 1.0) (* y2x y2x)))))
 (>= (+ (+ ?x475 (* (- 1.0) (* y2y y2y))) (* (* 2.0 oy) y2y)) 0.0)))
(assert
 (let ((?x376 (* oy oy)))
 (let ((?x372 (* (- 1.0) ?x376)))
 (let ((?x293 (+ (+ (+ (+ (- (/ 1.0 4.0)) R2) a1x) (* (- 1.0) (* a1x a1x))) (* (- 1.0) (* a1y a1y)))))
 (>= (+ (+ ?x293 ?x372) (* (* 2.0 a1y) oy)) 0.0)))))
(assert
 (let ((?x376 (* oy oy)))
 (let ((?x372 (* (- 1.0) ?x376)))
 (let ((?x438 (+ (+ (+ (+ (- (/ 1.0 4.0)) R2) b1x) (* (- 1.0) (* b1x b1x))) (* (- 1.0) (* b1y b1y)))))
 (>= (+ (+ ?x438 ?x372) (* (* 2.0 b1y) oy)) 0.0)))))
(assert
 (>= (+ (+ (* v1x v1x) (* v1y v1y)) (* (- 1.0) v1x)) 0.0))
(assert
 (>= v1x 0.0))
(assert
 (>= (+ 1.0 (* (- 1.0) v1x)) 0.0))
(assert
 (> R2 0.0))
(assert
 (> rho2 0.0))
(assert
 (let ((?x400 (* (- 1.0) v1y)))
 (let ((?x234 (* ?x400 xy)))
 (> ?x234 0.0))))
(assert
 (let ((?x414 (+ (+ (* v1y v1y) (* (* (- 1.0) v1y) xy)) (* (* (- 1.0) xx) (* v1y v1y)))))
 (> (+ ?x414 (* (* v1x v1y) xy)) 0.0)))
(assert
 (> (+ (* xx (* v1y v1y)) (* (* (* (- 1.0) v1x) v1y) xy)) 0.0))
(assert
 (let ((?x400 (* (- 1.0) v1y)))
 (let ((?x420 (* ?x400 y1y)))
 (> ?x420 0.0))))
(assert
 (let ((?x444 (+ (+ (* v1y v1y) (* (* (- 1.0) v1y) y1y)) (* (* (- 1.0) y1x) (* v1y v1y)))))
 (> (+ ?x444 (* (* v1x v1y) y1y)) 0.0)))
(assert
 (> (+ (* y1x (* v1y v1y)) (* (* (* (- 1.0) v1x) v1y) y1y)) 0.0))
(assert
 (let ((?x400 (* (- 1.0) v1y)))
 (let ((?x356 (* ?x400 y2y)))
 (> ?x356 0.0))))
(assert
 (let ((?x473 (+ (+ (* v1y v1y) (* (* (- 1.0) v1y) y2y)) (* (* (- 1.0) y2x) (* v1y v1y)))))
 (> (+ ?x473 (* (* v1x v1y) y2y)) 0.0)))
(assert
 (> (+ (* y2x (* v1y v1y)) (* (* (* (- 1.0) v1x) v1y) y2y)) 0.0))
(assert
 (let ((?x69 (* a1y v1y)))
 (> ?x69 0.0)))
(assert
 (let ((?x96 (* (- 1.0) a1y)))
 (let ((?x309 (* ?x96 v1x)))
 (let ((?x483 (* ?x309 v1y)))
 (let ((?x69 (* a1y v1y)))
 (let ((?x428 (+ (+ (+ (* (- 1.0) (* v1y v1y)) (* a1x (* v1y v1y))) ?x69) ?x483)))
 (> ?x428 0.0)))))))
(assert
 (> (+ (* a1x (* v1y v1y)) (* (* (* (- 1.0) a1y) v1x) v1y)) 0.0))
(assert
 (> (* b1y v1y) 0.0))
(assert
 (let ((?x419 (* b1y v1x)))
 (let ((?x432 (* ?x419 v1y)))
 (let ((?x389 (+ (+ (* v1y v1y) (* (* (- 1.0) b1x) (* v1y v1y))) (* (* (- 1.0) b1y) v1y))))
 (> (+ ?x389 ?x432) 0.0)))))
(assert
 (> (+ (* (* (- 1.0) b1x) (* v1y v1y)) (* (* b1y v1x) v1y)) 0.0))
(assert
 (> (+ (* xx y1y) (* (* (- 1.0) xy) y1x)) 0.0))
(assert
 (> (+ (* xx y2y) (* (* (- 1.0) xy) y2x)) 0.0))
(assert
 (let ((?x243 (* (- 1.0) xy)))
 (> ?x243 0.0)))
(assert
 (> (+ (* a1y xx) (* (* (- 1.0) a1x) xy)) 0.0))
(assert
 (> (+ (* v1y xx) (* (* (- 1.0) v1x) xy)) 0.0))
(assert
 (> (+ (* b1y xx) (* (* (- 1.0) b1x) xy)) 0.0))
(assert
 (> (+ (* y1x y2y) (* (* (- 1.0) y1y) y2x)) 0.0))
(assert
 (let ((?x348 (* (- 1.0) y1y)))
 (> ?x348 0.0)))
(assert
 (> (+ (* a1y y1x) (* (* (- 1.0) a1x) y1y)) 0.0))
(assert
 (> (+ (* v1y y1x) (* (* (- 1.0) v1x) y1y)) 0.0))
(assert
 (> (+ (* b1y y1x) (* (* (- 1.0) b1x) y1y)) 0.0))
(assert
 (let ((?x386 (* (- 1.0) y2y)))
 (> ?x386 0.0)))
(assert
 (> (+ (* a1y y2x) (* (* (- 1.0) a1x) y2y)) 0.0))
(assert
 (> (+ (* v1y y2x) (* (* (- 1.0) v1x) y2y)) 0.0))
(assert
 (> (+ (* b1y y2x) (* (* (- 1.0) b1x) y2y)) 0.0))
(assert
 (> a1y 0.0))
(assert
 (> v1y 0.0))
(assert
 (> b1y 0.0))
(assert
 (> (+ (* a1x v1y) (* (* (- 1.0) a1y) v1x)) 0.0))
(assert
 (> (+ (* a1x b1y) (* (* (- 1.0) a1y) b1x)) 0.0))
(assert
 (> (+ (* b1y v1x) (* (* (- 1.0) b1x) v1y)) 0.0))
(assert
 (let ((?x348 (* (- 1.0) y1y)))
 (let ((?x349 (* ?x348 y2x)))
 (let ((?x243 (* (- 1.0) xy)))
 (let ((?x221 (* ?x243 y1x)))
 (let ((?x137 (+ (+ (+ (* xx y1y) (* xy y2x)) (* y1x y2y)) (* (* (- 1.0) xx) y2y))))
 (> (+ (+ ?x137 ?x221) ?x349) 0.0)))))))
(assert
 (let ((?x243 (* (- 1.0) xy)))
 (let ((?x221 (* ?x243 y1x)))
 (> (+ (+ (+ xy (* (- 1.0) y1y)) (* xx y1y)) ?x221) 0.0))))
(assert
 (let ((?x243 (* (- 1.0) xy)))
 (let ((?x221 (* ?x243 y1x)))
 (let ((?x96 (* (- 1.0) a1y)))
 (let ((?x339 (* ?x96 xx)))
 (let ((?x202 (* (- 1.0) a1x)))
 (let ((?x166 (* ?x202 y1y)))
 (let ((?x71 (+ (+ (+ (+ (* a1x xy) (* a1y y1x)) (* xx y1y)) ?x166) ?x339)))
 (> (+ ?x71 ?x221) 0.0)))))))))
(assert
 (let ((?x243 (* (- 1.0) xy)))
 (let ((?x221 (* ?x243 y1x)))
 (let ((?x400 (* (- 1.0) v1y)))
 (let ((?x369 (* ?x400 xx)))
 (let ((?x140 (* (- 1.0) v1x)))
 (let ((?x129 (* ?x140 y1y)))
 (let ((?x192 (+ (+ (+ (+ (* v1x xy) (* v1y y1x)) (* xx y1y)) ?x129) ?x369)))
 (> (+ ?x192 ?x221) 0.0)))))))))
(assert
 (let ((?x243 (* (- 1.0) xy)))
 (let ((?x221 (* ?x243 y1x)))
 (let ((?x468 (* (- 1.0) b1y)))
 (let ((?x142 (* ?x468 xx)))
 (let ((?x425 (* (- 1.0) b1x)))
 (let ((?x443 (* ?x425 y1y)))
 (let ((?x117 (+ (+ (+ (+ (* b1x xy) (* b1y y1x)) (* xx y1y)) ?x443) ?x142)))
 (> (+ ?x117 ?x221) 0.0)))))))))
(assert
 (let ((?x243 (* (- 1.0) xy)))
 (let ((?x169 (* ?x243 y2x)))
 (> (+ (+ (+ xy (* (- 1.0) y2y)) (* xx y2y)) ?x169) 0.0))))
(assert
 (let ((?x243 (* (- 1.0) xy)))
 (let ((?x169 (* ?x243 y2x)))
 (let ((?x96 (* (- 1.0) a1y)))
 (let ((?x339 (* ?x96 xx)))
 (let ((?x202 (* (- 1.0) a1x)))
 (let ((?x397 (* ?x202 y2y)))
 (let ((?x103 (+ (+ (+ (+ (* a1x xy) (* a1y y2x)) (* xx y2y)) ?x397) ?x339)))
 (> (+ ?x103 ?x169) 0.0)))))))))
(assert
 (let ((?x243 (* (- 1.0) xy)))
 (let ((?x169 (* ?x243 y2x)))
 (let ((?x400 (* (- 1.0) v1y)))
 (let ((?x369 (* ?x400 xx)))
 (let ((?x140 (* (- 1.0) v1x)))
 (let ((?x363 (* ?x140 y2y)))
 (let ((?x101 (+ (+ (+ (+ (* v1x xy) (* v1y y2x)) (* xx y2y)) ?x363) ?x369)))
 (> (+ ?x101 ?x169) 0.0)))))))))
(assert
 (let ((?x243 (* (- 1.0) xy)))
 (let ((?x169 (* ?x243 y2x)))
 (let ((?x468 (* (- 1.0) b1y)))
 (let ((?x142 (* ?x468 xx)))
 (let ((?x425 (* (- 1.0) b1x)))
 (let ((?x262 (* ?x425 y2y)))
 (let ((?x104 (+ (+ (+ (+ (* b1x xy) (* b1y y2x)) (* xx y2y)) ?x262) ?x142)))
 (> (+ ?x104 ?x169) 0.0)))))))))
(assert
 (let ((?x96 (* (- 1.0) a1y)))
 (let ((?x339 (* ?x96 xx)))
 (> (+ (+ (+ a1y (* (- 1.0) xy)) (* a1x xy)) ?x339) 0.0))))
(assert
 (let ((?x400 (* (- 1.0) v1y)))
 (let ((?x369 (* ?x400 xx)))
 (> (+ (+ (+ v1y (* (- 1.0) xy)) (* v1x xy)) ?x369) 0.0))))
(assert
 (let ((?x468 (* (- 1.0) b1y)))
 (let ((?x142 (* ?x468 xx)))
 (> (+ (+ (+ b1y (* (- 1.0) xy)) (* b1x xy)) ?x142) 0.0))))
(assert
 (let ((?x400 (* (- 1.0) v1y)))
 (let ((?x369 (* ?x400 xx)))
 (let ((?x96 (* (- 1.0) a1y)))
 (let ((?x309 (* ?x96 v1x)))
 (let ((?x202 (* (- 1.0) a1x)))
 (let ((?x109 (* ?x202 xy)))
 (let ((?x334 (+ (+ (+ (+ (* a1x v1y) (* a1y xx)) (* v1x xy)) ?x109) ?x309)))
 (> (+ ?x334 ?x369) 0.0)))))))))
(assert
 (let ((?x468 (* (- 1.0) b1y)))
 (let ((?x142 (* ?x468 xx)))
 (let ((?x96 (* (- 1.0) a1y)))
 (let ((?x384 (* ?x96 b1x)))
 (let ((?x202 (* (- 1.0) a1x)))
 (let ((?x109 (* ?x202 xy)))
 (let ((?x299 (+ (+ (+ (+ (* a1x b1y) (* a1y xx)) (* b1x xy)) ?x109) ?x384)))
 (> (+ ?x299 ?x142) 0.0)))))))))
(assert
 (let ((?x140 (* (- 1.0) v1x)))
 (let ((?x135 (* ?x140 xy)))
 (let ((?x468 (* (- 1.0) b1y)))
 (let ((?x142 (* ?x468 xx)))
 (let ((?x425 (* (- 1.0) b1x)))
 (let ((?x136 (* ?x425 v1y)))
 (let ((?x321 (+ (+ (+ (+ (* b1x xy) (* b1y v1x)) (* v1y xx)) ?x136) ?x142)))
 (> (+ ?x321 ?x135) 0.0)))))))))
(assert
 (let ((?x348 (* (- 1.0) y1y)))
 (let ((?x349 (* ?x348 y2x)))
 (> (+ (+ (+ y1y (* (- 1.0) y2y)) (* y1x y2y)) ?x349) 0.0))))
(assert
 (let ((?x348 (* (- 1.0) y1y)))
 (let ((?x349 (* ?x348 y2x)))
 (let ((?x96 (* (- 1.0) a1y)))
 (let ((?x327 (* ?x96 y1x)))
 (let ((?x202 (* (- 1.0) a1x)))
 (let ((?x397 (* ?x202 y2y)))
 (let ((?x218 (+ (+ (+ (+ (* a1x y1y) (* a1y y2x)) (* y1x y2y)) ?x397) ?x327)))
 (> (+ ?x218 ?x349) 0.0)))))))))
(assert
 (let ((?x348 (* (- 1.0) y1y)))
 (let ((?x349 (* ?x348 y2x)))
 (let ((?x400 (* (- 1.0) v1y)))
 (let ((?x111 (* ?x400 y1x)))
 (let ((?x140 (* (- 1.0) v1x)))
 (let ((?x363 (* ?x140 y2y)))
 (let ((?x57 (+ (+ (+ (+ (* v1x y1y) (* v1y y2x)) (* y1x y2y)) ?x363) ?x111)))
 (> (+ ?x57 ?x349) 0.0)))))))))
(assert
 (let ((?x348 (* (- 1.0) y1y)))
 (let ((?x349 (* ?x348 y2x)))
 (let ((?x468 (* (- 1.0) b1y)))
 (let ((?x72 (* ?x468 y1x)))
 (let ((?x425 (* (- 1.0) b1x)))
 (let ((?x262 (* ?x425 y2y)))
 (let ((?x236 (+ (+ (+ (+ (* b1x y1y) (* b1y y2x)) (* y1x y2y)) ?x262) ?x72)))
 (> (+ ?x236 ?x349) 0.0)))))))))
(assert
 (let ((?x96 (* (- 1.0) a1y)))
 (let ((?x327 (* ?x96 y1x)))
 (> (+ (+ (+ a1y (* (- 1.0) y1y)) (* a1x y1y)) ?x327) 0.0))))
(assert
 (let ((?x400 (* (- 1.0) v1y)))
 (let ((?x111 (* ?x400 y1x)))
 (> (+ (+ (+ v1y (* (- 1.0) y1y)) (* v1x y1y)) ?x111) 0.0))))
(assert
 (let ((?x468 (* (- 1.0) b1y)))
 (let ((?x72 (* ?x468 y1x)))
 (> (+ (+ (+ b1y (* (- 1.0) y1y)) (* b1x y1y)) ?x72) 0.0))))
(assert
 (let ((?x400 (* (- 1.0) v1y)))
 (let ((?x111 (* ?x400 y1x)))
 (let ((?x96 (* (- 1.0) a1y)))
 (let ((?x309 (* ?x96 v1x)))
 (let ((?x202 (* (- 1.0) a1x)))
 (let ((?x166 (* ?x202 y1y)))
 (let ((?x16 (+ (+ (+ (+ (* a1x v1y) (* a1y y1x)) (* v1x y1y)) ?x166) ?x309)))
 (> (+ ?x16 ?x111) 0.0)))))))))
(assert
 (let ((?x468 (* (- 1.0) b1y)))
 (let ((?x72 (* ?x468 y1x)))
 (let ((?x96 (* (- 1.0) a1y)))
 (let ((?x384 (* ?x96 b1x)))
 (let ((?x202 (* (- 1.0) a1x)))
 (let ((?x166 (* ?x202 y1y)))
 (let ((?x381 (+ (+ (+ (+ (* a1x b1y) (* a1y y1x)) (* b1x y1y)) ?x166) ?x384)))
 (> (+ ?x381 ?x72) 0.0)))))))))
(assert
 (let ((?x140 (* (- 1.0) v1x)))
 (let ((?x129 (* ?x140 y1y)))
 (let ((?x468 (* (- 1.0) b1y)))
 (let ((?x72 (* ?x468 y1x)))
 (let ((?x425 (* (- 1.0) b1x)))
 (let ((?x136 (* ?x425 v1y)))
 (let ((?x251 (+ (+ (+ (+ (* b1x y1y) (* b1y v1x)) (* v1y y1x)) ?x136) ?x72)))
 (> (+ ?x251 ?x129) 0.0)))))))))
(assert
 (let ((?x304 (+ (+ (+ a1y (* (- 1.0) y2y)) (* a1x y2y)) (* (* (- 1.0) a1y) y2x))))
 (> ?x304 0.0)))
(assert
 (let ((?x400 (* (- 1.0) v1y)))
 (let ((?x229 (* ?x400 y2x)))
 (> (+ (+ (+ v1y (* (- 1.0) y2y)) (* v1x y2y)) ?x229) 0.0))))
(assert
 (let ((?x468 (* (- 1.0) b1y)))
 (let ((?x199 (* ?x468 y2x)))
 (> (+ (+ (+ b1y (* (- 1.0) y2y)) (* b1x y2y)) ?x199) 0.0))))
(assert
 (let ((?x400 (* (- 1.0) v1y)))
 (let ((?x229 (* ?x400 y2x)))
 (let ((?x96 (* (- 1.0) a1y)))
 (let ((?x309 (* ?x96 v1x)))
 (let ((?x202 (* (- 1.0) a1x)))
 (let ((?x397 (* ?x202 y2y)))
 (let ((?x60 (+ (+ (+ (+ (* a1x v1y) (* a1y y2x)) (* v1x y2y)) ?x397) ?x309)))
 (> (+ ?x60 ?x229) 0.0)))))))))
(assert
 (let ((?x468 (* (- 1.0) b1y)))
 (let ((?x199 (* ?x468 y2x)))
 (let ((?x96 (* (- 1.0) a1y)))
 (let ((?x384 (* ?x96 b1x)))
 (let ((?x202 (* (- 1.0) a1x)))
 (let ((?x397 (* ?x202 y2y)))
 (let ((?x66 (+ (+ (+ (+ (* a1x b1y) (* a1y y2x)) (* b1x y2y)) ?x397) ?x384)))
 (> (+ ?x66 ?x199) 0.0)))))))))
(assert
 (let ((?x140 (* (- 1.0) v1x)))
 (let ((?x363 (* ?x140 y2y)))
 (let ((?x468 (* (- 1.0) b1y)))
 (let ((?x199 (* ?x468 y2x)))
 (let ((?x425 (* (- 1.0) b1x)))
 (let ((?x136 (* ?x425 v1y)))
 (let ((?x183 (+ (+ (+ (+ (* b1x y2y) (* b1y v1x)) (* v1y y2x)) ?x136) ?x199)))
 (> (+ ?x183 ?x363) 0.0)))))))))
(assert
 (let ((?x96 (* (- 1.0) a1y)))
 (let ((?x309 (* ?x96 v1x)))
 (> (+ (+ (+ a1y (* (- 1.0) v1y)) (* a1x v1y)) ?x309) 0.0))))
(assert
 (let ((?x96 (* (- 1.0) a1y)))
 (let ((?x384 (* ?x96 b1x)))
 (> (+ (+ (+ a1y (* (- 1.0) b1y)) (* a1x b1y)) ?x384) 0.0))))
(assert
 (let ((?x425 (* (- 1.0) b1x)))
 (let ((?x136 (* ?x425 v1y)))
 (> (+ (+ (+ v1y (* (- 1.0) b1y)) (* b1y v1x)) ?x136) 0.0))))
(assert
 (let ((?x425 (* (- 1.0) b1x)))
(let ((?x136 (* ?x425 v1y)))
(let ((?x96 (* (- 1.0) a1y)))
(let ((?x309 (* ?x96 v1x)))
(let ((?x403 (+ (+ (+ (* a1x v1y) (* a1y b1x)) (* b1y v1x)) (* (* (- 1.0) a1x) b1y))))
(> (+ (+ ?x403 ?x309) ?x136) 0.0)))))))
(check-sat)
